(set-logic ALL)
(declare-fun seed0_I0_2 () Int)
(declare-fun seed0_I0_4 () Int)
(declare-fun seed0_I0_6 () Int)
(declare-fun seed0_PCTEMP_LHS_1 () Int)
(declare-fun seed0_PCTEMP_LHS_2 () Int)
(declare-fun seed0_PCTEMP_LHS_3 () Int)
(declare-fun seed0_T0_2 () String)
(declare-fun seed0_T0_4 () String)
(declare-fun seed0_T0_6 () String)
(declare-fun seed0_T1_2 () String)
(declare-fun seed0_T1_4 () String)
(declare-fun seed0_T1_6 () String)
(declare-fun seed0_T2_2 () String)
(declare-fun seed0_T2_4 () String)
(declare-fun seed0_T2_6 () String)
(declare-fun seed0_T3_2 () String)
(declare-fun seed0_T3_4 () String)
(declare-fun seed0_T3_6 () String)
(declare-fun seed0_T4_2 () String)
(declare-fun seed0_T4_4 () String)
(declare-fun seed0_T4_6 () String)
(declare-fun seed0_T5_2 () String)
(declare-fun seed0_T5_4 () String)
(declare-fun seed0_T5_6 () String)
(declare-fun seed0_T_4 () Bool)
(declare-fun seed0_T_5 () Bool)
(declare-fun seed0_T_6 () Bool)
(declare-fun seed0_T_7 () Bool)
(declare-fun seed0_T_8 () Bool)
(declare-fun seed0_T_SELECT_1 () Bool)
(declare-fun seed0_T_SELECT_2 () Bool)
(declare-fun seed0_T_SELECT_3 () Bool)
(declare-fun seed0_var_0xINPUT_109269 () String)
(assert (and (or (= seed0_T_SELECT_1 (not (= seed0_PCTEMP_LHS_1 (- 1)))) (not (<= (- seed0_PCTEMP_LHS_2 (- 274)) (div seed0_I0_2 seed0_PCTEMP_LHS_2)))) (or (ite seed0_T_SELECT_1 (and (= seed0_PCTEMP_LHS_1 (+ seed0_I0_2 0)) (= seed0_var_0xINPUT_109269 (str.++ seed0_T0_2 seed0_T1_2)) (= seed0_I0_2 (str.len seed0_T4_2)) (= 0 (str.len seed0_T0_2)) (= seed0_T1_2 (str.++ seed0_T2_2 seed0_T3_2)) (= seed0_T2_2 (str.++ seed0_T4_2 seed0_T5_2)) (= seed0_T5_2 "__utma=16886264.") (not (str.in_re seed0_T4_2 (re.++ (str.to_re "_") (str.to_re "_") (str.to_re "u") (str.to_re "t") (str.to_re "m") (str.to_re "a") (str.to_re "=") (str.to_re "1") (str.to_re "6") (str.to_re "8") (str.to_re "8") (str.to_re "6") (str.to_re "2") (str.to_re "6") (str.to_re "4") (str.to_re "."))))) (and (= seed0_PCTEMP_LHS_1 (- 1)) (= seed0_var_0xINPUT_109269 (str.++ seed0_T0_2 seed0_T1_2)) (= 0 (str.len seed0_T0_2)) (not (str.in_re seed0_T1_2 (re.++ (str.to_re "_") (str.to_re "_") (str.to_re "u") (str.to_re "t") (str.to_re "m") (str.to_re "a") (str.to_re "=") (str.to_re "1") (str.to_re "6") (str.to_re "8") (str.to_re "8") (str.to_re "6") (str.to_re "2") (str.to_re "6") (str.to_re "4") (str.to_re ".")))))) (xor (distinct (mod seed0_PCTEMP_LHS_2 seed0_PCTEMP_LHS_2) (- seed0_I0_2 698)) (> (mod seed0_PCTEMP_LHS_3 seed0_PCTEMP_LHS_3) (mod seed0_I0_6 seed0_PCTEMP_LHS_2)))) (or (= seed0_T_SELECT_2 (not (= seed0_PCTEMP_LHS_2 (- 1)))) (not (= (- seed0_PCTEMP_LHS_3 (- 190)) (+ seed0_I0_6 338)))) (or (ite seed0_T_SELECT_2 (and (= seed0_PCTEMP_LHS_2 (+ seed0_I0_4 0)) (= seed0_var_0xINPUT_109269 (str.++ seed0_T0_4 seed0_T1_4)) (= seed0_I0_4 (str.len seed0_T4_4)) (= 0 (str.len seed0_T0_4)) (= seed0_T1_4 (str.++ seed0_T2_4 seed0_T3_4)) (= seed0_T2_4 (str.++ seed0_T4_4 seed0_T5_4)) (= seed0_T5_4 "__utmb=16886264") (not (str.in_re seed0_T4_4 (re.++ (str.to_re "_") (str.to_re "_") (str.to_re "u") (str.to_re "t") (str.to_re "m") (str.to_re "b") (str.to_re "=") (str.to_re "1") (str.to_re "6") (str.to_re "8") (str.to_re "8") (str.to_re "6") (str.to_re "2") (str.to_re "6") (str.to_re "4"))))) (and (= seed0_PCTEMP_LHS_2 (- 1)) (= seed0_var_0xINPUT_109269 (str.++ seed0_T0_4 seed0_T1_4)) (= 0 (str.len seed0_T0_4)) (not (str.in_re seed0_T1_4 (re.++ (str.to_re "_") (str.to_re "_") (str.to_re "u") (str.to_re "t") (str.to_re "m") (str.to_re "b") (str.to_re "=") (str.to_re "1") (str.to_re "6") (str.to_re "8") (str.to_re "8") (str.to_re "6") (str.to_re "2") (str.to_re "6") (str.to_re "4")))))) (or (= (- seed0_PCTEMP_LHS_3 (- 996)) (- seed0_I0_4 79)) (= (mod seed0_I0_6 seed0_I0_6) (* seed0_PCTEMP_LHS_2 seed0_PCTEMP_LHS_3)))) (or (= seed0_T_SELECT_3 (not (= seed0_PCTEMP_LHS_3 (- 1)))) (and (str.<= (str.++ seed0_T4_2 "7HAbjpu") (str.++ seed0_T1_6 "PD1lonSZsL7h6u4zRe9O")) (str.< (str.++ seed0_T3_4 "C3BedZGLtTV9ch") (str.++ seed0_T1_2 "QjNCmGbhqAYVH6")))) (or (ite seed0_T_SELECT_3 (and (= seed0_PCTEMP_LHS_3 (+ seed0_I0_6 0)) (= seed0_var_0xINPUT_109269 (str.++ seed0_T0_6 seed0_T1_6)) (= seed0_I0_6 (str.len seed0_T4_6)) (= 0 (str.len seed0_T0_6)) (= seed0_T1_6 (str.++ seed0_T2_6 seed0_T3_6)) (= seed0_T2_6 (str.++ seed0_T4_6 seed0_T5_6)) (= seed0_T5_6 "__utmc=16886264") (not (str.in_re seed0_T4_6 (re.++ (str.to_re "_") (str.to_re "_") (str.to_re "u") (str.to_re "t") (str.to_re "m") (str.to_re "c") (str.to_re "=") (str.to_re "1") (str.to_re "6") (str.to_re "8") (str.to_re "8") (str.to_re "6") (str.to_re "2") (str.to_re "6") (str.to_re "4"))))) (and (= seed0_PCTEMP_LHS_3 (- 1)) (= seed0_var_0xINPUT_109269 (str.++ seed0_T0_6 seed0_T1_6)) (= 0 (str.len seed0_T0_6)) (not (str.in_re seed0_T1_6 (re.++ (str.to_re "_") (str.to_re "_") (str.to_re "u") (str.to_re "t") (str.to_re "m") (str.to_re "c") (str.to_re "=") (str.to_re "1") (str.to_re "6") (str.to_re "8") (str.to_re "8") (str.to_re "6") (str.to_re "2") (str.to_re "6") (str.to_re "4")))))) (and (> (mod seed0_I0_2 seed0_PCTEMP_LHS_2) (+ seed0_I0_4 947)) (> (* seed0_PCTEMP_LHS_3 seed0_PCTEMP_LHS_1) (mod seed0_PCTEMP_LHS_3 seed0_PCTEMP_LHS_2)))) (or (= seed0_T_4 (= "-" seed0_var_0xINPUT_109269)) (and (str.suffixof (str.++ seed0_T3_2 "v6itWExKbMg3a") (str.++ seed0_T5_2 "JWV9qDluO")) (str.prefixof (str.++ seed0_T3_2 "") (str.++ seed0_T3_2 "ydVrR")))) (or (= seed0_T_5 (not seed0_T_4)) (xor (>= (+ seed0_I0_2 22) (div seed0_I0_6 seed0_I0_4)) (distinct (mod seed0_PCTEMP_LHS_3 seed0_I0_2) (- seed0_I0_4 349)))) (or seed0_T_5 (or (= (+ seed0_PCTEMP_LHS_3 (- 746)) (+ seed0_PCTEMP_LHS_1 321)) (<= (div seed0_I0_6 seed0_PCTEMP_LHS_2) (* seed0_I0_4 seed0_PCTEMP_LHS_2)))) (or (= seed0_T_6 (= "" seed0_var_0xINPUT_109269)) (and (distinct (mod seed0_I0_4 seed0_I0_6) (mod seed0_I0_2 seed0_PCTEMP_LHS_2)) (>= (* seed0_PCTEMP_LHS_3 seed0_PCTEMP_LHS_1) (div seed0_I0_2 seed0_I0_4)))) (or (= seed0_T_7 (not seed0_T_6)) (xor (str.< (str.++ seed0_T1_6 "PW4") (str.++ seed0_T1_4 "K6xq4NXfMS9TypsgzGQ")) (str.suffixof (str.++ seed0_T0_4 "c") (str.++ seed0_T1_4 "vtNeXrjfB9aydgI")))) (or seed0_T_7 (> (* seed0_I0_4 seed0_PCTEMP_LHS_3) (* seed0_PCTEMP_LHS_2 seed0_PCTEMP_LHS_3))) (or (= seed0_T_8 (< (- 1) seed0_PCTEMP_LHS_1)) (xor (> (- seed0_PCTEMP_LHS_1 469) (mod seed0_I0_2 seed0_I0_4)) (> (* seed0_PCTEMP_LHS_2 seed0_I0_2) (div seed0_I0_4 seed0_PCTEMP_LHS_3)))) (or seed0_T_8 (or (< (div seed0_PCTEMP_LHS_3 seed0_I0_4) (+ seed0_I0_2 988)) (= (* seed0_PCTEMP_LHS_3 seed0_PCTEMP_LHS_3) (div seed0_PCTEMP_LHS_1 seed0_I0_6))))))
(check-sat)
(exit)